29962.95 0
0 155 199 125 161 93 31 104 96 166 139 16 89 10 88 138 97 169 48 69 152 172 184 21 192 110 102 57 127 28 190 196 175 198 107 128 35 158 74 66 131 6 170 60 111 73 197 194 100 189 120 22 41 109 167 148 185 37 65 7 51 45 145 124 108 133 68 157 183 106 156 193 79 75 126 160 134 71 56 30 77 98 44 165 32 67 13 186 64 173 159 85 95 188 17 81 182 103 105 114 11 27 46 132 163 113 24 19 141 101 8 9 181 20 55 150 94 147 130 162 25 86 112 54 177 144 135 116 91 140 47 1 143 29 99 118 50 191 18 195 36 34 61 117 4 115 5 39 82 2 176 123 52 59 43 92 3 154 63 149 58 84 142 151 15 62 153 53 90 76 42 70 121 122 187 38 72 14 171 136 83 40 146 78 180 12 178 87 164 23 26 179 119 137 80 33 129 174 168 49